TCS_Benchmarks/redos_fix/regexlib2_output_distinct_2741_2740_72_0.smt2
(set-logic QF_S)
(declare-const x String)
(assert (str.in.re x (re.inter  (re.++  (re.union  (re.range "\u{30}" "\u{39}")  (re.++ (re.range "\u{30}" "\u{39}")   (re.range "\u{30}" "\u{39}"))) (re.++  (str.to.re "\u{31}")  (re.++ (re.range "\u{30}" "\u{39}") (re.range "\u{30}" "\u{39}"))))  (re.++  (re.union  (re.range "\u{30}" "\u{39}")  (re.++ (re.range "\u{30}" "\u{39}")   (re.range "\u{30}" "\u{39}"))) (re.* (re.union (re.range "\u{00}" "\u{09}") (re.range "\u{0b}" "\u{0c}") (re.range "\u{0e}" "\u{84}") (re.range "\u{86}" "\u{ff}")) )) )))
(check-sat)
(get-model)