TCS_Benchmarks/redos_fix/regexlib2_output_distinct_2741_2740_72_0.txt
\d{1,2}1\d{2}
\d{1,2}.*